INCAR created by Atomic Simulation Environment
 ENCUT = 300.000000
 SIGMA = 0.100000
 EDIFF = 1.00e-04
 EDIFFG = -5.00e-02
 PREC = Accurate
 GGA = PE
 ALGO = normal
 ISMEAR = 0
 NPAR = 1
 ICHARG = 1
 NELM = 250
 IBRION = 2
 ISIF = 2
 ISPIN = 1
 NSW = 250
 KPAR = 1
 NELMDL = -5
 LUSE_VDW = .FALSE.
 LDIPOL = .FALSE.
 LVHAR = .TRUE.
 LREAL = auto
