 H                                      
   1.00000000000000     
    20.0000000000000000    0.0000000000000000    0.0000000000000000
     0.0000000000000000   20.0000000000000000    0.0000000000000000
     0.0000000000000000    0.0000000000000000   20.0000000000000000
   H 
     2
Direct
  0.0000000000000000  0.0000000000000000 -0.0012820680109876
  0.0000000000000000 -0.0000000000000000  0.0362820680109842
 
  0.00000000E+00  0.00000000E+00  0.00000000E+00
  0.00000000E+00  0.00000000E+00  0.00000000E+00
