&CONTROL
  calculation='scf',
  prefix='calc',
  pseudo_dir='/home/vossj/suncat/psp/gbrv1.5pbe',
  outdir='.',
  tefield=.true.,
  dipfield=.true.,
  tprnfor=.true.,
/
&SYSTEM
  ibrav=0,
  celldm(1)=1.8897261245650618d0,
  nat=40,
  ntyp=2,
  ecutwfc=36.7493237909d0,
  ecutrho=367.493237909d0,
  nbnd=230,
  occupations='smearing',
  smearing='fd',
  degauss=0.00734986475817d0,
  input_dft='RPBE',
  edir=3,
  emaxpos=0.999985263778d0,
  eopreg=0.025d0,
  eamp=0.0d0,
/
&ELECTRONS
  diagonalization='david',
  conv_thr=7.34986475817e-07,
  mixing_beta=0.1d0,
  mixing_ndim=10,
  electron_maxstep=200,
  startingwfc='atomic+random',
  conv_thr=7.34986475817e-07,
/
CELL_PARAMETERS
    6.786000000000000d0    -0.000000000000000d0    -0.000000000000000d0
    0.000000000000000d0     9.597000000000000d0    -0.000000000000000d0
    0.000000000000000d0     0.000000000000000d0    33.930000000000000d0
ATOMIC_SPECIES
Pt1 195.08d0 Pt.UPF
N1 14.0067d0 N.UPF
ATOMIC_POSITIONS {crystal}
Pt1      0.624963159445918d0     0.937480462644577d0     0.400000000000000d0
Pt1      0.124963159445918d0     0.937480462644577d0     0.400000000000000d0
Pt1      0.124963159445918d0     0.437532562259039d0     0.400000000000000d0
Pt1      0.624963159445918d0     0.437532562259039d0     0.400000000000000d0
N1       0.375036840554082d0     0.062519537355424d0     0.400000000000000d0
N1       0.875036840554082d0     0.062519537355424d0     0.400000000000000d0
N1       0.375036840554082d0     0.562467437740961d0     0.400000000000000d0
N1       0.875036840554082d0     0.562467437740961d0     0.400000000000000d0
Pt1      0.875036840554082d0     0.687506512451808d0     0.450014736221633d0
N1       0.124963159445918d0     0.312493487548192d0     0.450014736221633d0
Pt1      0.375036840554082d0     0.687506512451808d0     0.450014736221633d0
N1       0.624963159445918d0     0.812545587162655d0     0.450014736221633d0
N1       0.124963159445918d0     0.812545587162655d0     0.450014736221633d0
Pt1      0.875036840554082d0     0.187558612066271d0     0.450014736221633d0
Pt1      0.375036840554082d0     0.187558612066271d0     0.450014736221633d0
N1       0.624963159445918d0     0.312493487548192d0     0.450014736221633d0
N1       0.903772472737990d0     0.552776909450870d0     0.492396109637489d0
N1       0.864574123194813d0     0.124622277795144d0     0.509136457412319d0
N1       0.327586206896552d0     0.132645618422424d0     0.506071323312703d0
N1       0.379899793692897d0     0.628842346566635d0     0.508605953433540d0
Pt1      0.700412614205718d0     0.960300093779306d0     0.491865605658709d0
Pt1      0.592690834070144d0     0.480775242263207d0     0.489183613321544d0
Pt1      0.103006189213086d0     0.004167969157028d0     0.491246684350133d0
Pt1      0.187002652519894d0     0.474419089298739d0     0.489566755083996d0
Pt1      0.303566165635131d0     0.288319266437428d0     0.549837901562039d0
Pt1      0.371942234011200d0     0.759612378868396d0     0.557913351016799d0
Pt1      0.924550545240200d0     0.749713452120454d0     0.564308871205423d0
Pt1      0.796345417035072d0     0.225278732937376d0     0.565251989389920d0
N1       0.594311818449750d0     0.354589976034177d0     0.538962569997053d0
N1       0.662687886825818d0     0.851828696467646d0     0.548717948717949d0
N1       0.037135278514589d0     0.333124934875482d0     0.567904509283820d0
N1       0.127615679339817d0     0.878920495988330d0     0.539905688181550d0
Pt1      0.569112879457707d0     0.005730957590914d0     0.585676392572944d0
Pt1      0.588269967580312d0     0.481296238407836d0     0.584585912172119d0
N1       0.860890067786619d0     0.066270709596749d0     0.599970527556734d0
N1       0.838638373121132d0     0.578826716682297d0     0.589949896846449d0
N1       0.337459475390510d0     0.119620714806710d0     0.592307692307692d0
N1       0.382110226937813d0     0.606856309263311d0     0.599941055113469d0
Pt1      0.126436781609195d0     0.513702198603730d0     0.587886825817860d0
Pt1      0.119952844090775d0     0.986662498697510d0     0.589301503094606d0
K_POINTS automatic
4 4 1 0 0 0
