&CONTROL
  calculation='scf',
  prefix='calc',
  pseudo_dir='/home/vossj/suncat/psp/gbrv1.5pbe',
  outdir='.',
  tefield=.true.,
  dipfield=.true.,
  tprnfor=.true.,
/
&SYSTEM
  ibrav=0,
  celldm(1)=1.8897261245650618d0,
  nat=42,
  ntyp=3,
  ecutwfc=36.7493237909d0,
  ecutrho=367.493237909d0,
  nbnd=201,
  occupations='smearing',
  smearing='fd',
  degauss=0.00734986475817d0,
  input_dft='RPBE',
  edir=3,
  emaxpos=0.0159422173621d0,
  eopreg=0.025d0,
  eamp=0.0d0,
/
&ELECTRONS
  diagonalization='david',
  conv_thr=7.34986475817e-07,
  mixing_beta=0.1d0,
  mixing_ndim=10,
  electron_maxstep=200,
  startingwfc='atomic+random',
  conv_thr=7.34986475817e-07,
/
CELL_PARAMETERS
    6.275656987363085d0    -0.000000000000001d0    -0.000000000000000d0
   -3.137828493681543d0     5.434878376493750d0     0.000000000000000d0
    0.000000000000000d0    -0.000000000000002d0    30.744314839542923d0
ATOMIC_SPECIES
N1 14.0067d0 N.UPF
Nb1 92.9064d0 Nb.UPF
H1 1.00794d0 H.UPF
ATOMIC_POSITIONS {crystal}
N1       0.083333333333334d0     0.083333333333334d0     0.312500000000000d0
N1       0.083333333333334d0     0.583333333333334d0     0.312500000000000d0
N1       0.583333333333333d0     0.083333333333334d0     0.312500000000000d0
N1       0.583333333333333d0     0.583333333333334d0     0.312500000000000d0
Nb1      0.916666666666666d0     0.750000000000000d0     0.354166666666667d0
Nb1      0.416666666666666d0     0.750000000000000d0     0.354166666666667d0
Nb1      0.916666666666667d0     0.250000000000000d0     0.354166666666667d0
Nb1      0.416666666666666d0     0.250000000000000d0     0.354166666666667d0
N1       0.750000000000000d0     0.416666666666667d0     0.395833333333333d0
N1       0.250000000000000d0     0.916666666666667d0     0.395833333333333d0
N1       0.750000000000000d0     0.916666666666667d0     0.395833333333333d0
N1       0.250000000000000d0     0.416666666666667d0     0.395833333333333d0
Nb1      0.083333333333333d0     0.583333333333333d0     0.437500000000000d0
Nb1      0.583333333333333d0     0.583333333333333d0     0.437500000000000d0
Nb1      0.583333333333333d0     0.083333333333333d0     0.437500000000000d0
Nb1      0.083333333333333d0     0.083333333333333d0     0.437500000000000d0
N1       0.926844699576248d0     0.254584405973174d0     0.479441227306069d0
N1       0.410391403800814d0     0.260831009518824d0     0.481213188413877d0
N1       0.409261311763635d0     0.733323555925170d0     0.480979319593174d0
N1       0.912910840922378d0     0.748418314534326d0     0.482510442377396d0
Nb1      0.269159893685229d0     0.926898784249687d0     0.519330288571293d0
Nb1      0.742615690181269d0     0.394019336115423d0     0.521278629913881d0
Nb1      0.739383236597033d0     0.930195102732092d0     0.521273049095988d0
Nb1      0.233273528507139d0     0.409531683647601d0     0.527297915637746d0
N1       0.570419896092490d0     0.077900609341605d0     0.568404979238051d0
N1       0.066638869501794d0     0.054846574960633d0     0.563785572594851d0
N1       0.067531714121143d0     0.598012618457529d0     0.563975841123207d0
N1       0.592027698176631d0     0.587802092198836d0     0.563855693931286d0
Nb1      0.925648927727244d0     0.255988469555595d0     0.603178275545831d0
Nb1      0.910218848221621d0     0.747803633503944d0     0.611284839506232d0
Nb1      0.393041690988977d0     0.255655857159172d0     0.605125066951207d0
Nb1      0.394531849650218d0     0.722907636024835d0     0.605069717064493d0
N1       0.260713137802636d0     0.922572931645295d0     0.647779602542037d0
N1       0.731881803918068d0     0.922325132800377d0     0.646611699133685d0
N1       0.731810785314891d0     0.395070673382742d0     0.646533646451962d0
Nb1      0.568010869572604d0     0.077081676438487d0     0.688835517978619d0
Nb1      0.575203127563725d0     0.580167940188382d0     0.685120757511550d0
Nb1      0.067088792399307d0     0.583606355612559d0     0.684925031731062d0
Nb1      0.067412395830241d0     0.069934647164217d0     0.684728356685075d0
N1       0.230737392443964d0     0.408828643093663d0     0.651587126263107d0
H1       0.398572419344135d0     0.735235676247149d0     0.719384434724248d0
H1       0.397536377393449d0     0.247399893767380d0     0.719318101949572d0
K_POINTS automatic
4 4 1 0 0 0
