&CONTROL
  calculation='scf',
  prefix='calc',
  pseudo_dir='/home/vossj/suncat/psp/gbrv1.5pbe',
  outdir='.',
  tefield=.true.,
  dipfield=.true.,
  tprnfor=.true.,
/
&SYSTEM
  ibrav=0,
  celldm(1)=1.8897261245650618d0,
  nat=40,
  ntyp=2,
  ecutwfc=36.7493237909d0,
  ecutrho=367.493237909d0,
  nbnd=170,
  occupations='smearing',
  smearing='fd',
  degauss=0.00734986475817d0,
  input_dft='RPBE',
  edir=3,
  emaxpos=0.0256765533563d0,
  eopreg=0.025d0,
  eamp=0.0d0,
/
&ELECTRONS
  diagonalization='david',
  conv_thr=7.34986475817e-07,
  mixing_beta=0.1d0,
  mixing_ndim=10,
  electron_maxstep=200,
  startingwfc='atomic+random',
  conv_thr=7.34986475817e-07,
/
CELL_PARAMETERS
    6.874000000000000d0     0.000000000000000d0    -0.000000000000000d0
    3.437000000000000d0     5.953000000000000d0    -0.000000000000000d0
    0.000000000000000d0    -0.000000000000000d0    33.677000000000000d0
ATOMIC_SPECIES
Mg1 24.305d0 Mg.UPF
N1 14.0067d0 N.UPF
ATOMIC_POSITIONS {crystal}
Mg1      0.916696036320980d0     0.916680665210818d0     0.322920687709713d0
Mg1      0.916665294100656d0     0.416596673945910d0     0.322920687709713d0
Mg1      0.416696036320980d0     0.916680665210818d0     0.322920687709713d0
Mg1      0.416665294100656d0     0.416596673945910d0     0.322920687709713d0
N1       0.249942633257384d0     0.750041995632454d0     0.343765774861181d0
N1       0.749942633257384d0     0.750041995632454d0     0.343765774861181d0
N1       0.750057366742616d0     0.249958004367546d0     0.343765774861181d0
N1       0.250057366742616d0     0.249958004367546d0     0.343765774861181d0
Mg1      0.749942633257384d0     0.750041995632454d0     0.406241648602904d0
Mg1      0.750057366742616d0     0.249958004367546d0     0.406241648602904d0
Mg1      0.249942633257384d0     0.750041995632454d0     0.406241648602904d0
Mg1      0.250057366742616d0     0.249958004367546d0     0.406241648602904d0
N1       0.583303963679020d0     0.083319334789182d0     0.427086735754372d0
N1       0.583418697164253d0     0.583235343524274d0     0.427086735754372d0
N1       0.083418697164253d0     0.583235343524274d0     0.427086735754372d0
N1       0.083303963679020d0     0.083319334789182d0     0.427086735754372d0
Mg1      0.588127863657402d0     0.086248449712186d0     0.487308657204386d0
Mg1      0.587228139278078d0     0.576372070244116d0     0.487093176970765d0
Mg1      0.065060815722048d0     0.091097266507190d0     0.487669596024352d0
Mg1      0.078996570785236d0     0.583910767176394d0     0.486609203528884d0
N1       0.915077803240770d0     0.417788106600426d0     0.522526813190830d0
N1       0.417599870874700d0     0.915072119690421d0     0.524996817704498d0
N1       0.914318858370648d0     0.918225184815039d0     0.523667047846196d0
N1       0.409156134257249d0     0.419080750427388d0     0.519635123029630d0
Mg1      0.249535751164423d0     0.251593378235180d0     0.544550521956433d0
Mg1      0.752519597531014d0     0.747529562243813d0     0.547825913973196d0
Mg1      0.730287529451325d0     0.263558518584459d0     0.552464293401457d0
Mg1      0.251519568316154d0     0.744598004320685d0     0.544929595821304d0
N1       0.288858107425935d0     0.534199759592839d0     0.701297166796738d0
N1       0.659615259360050d0     0.324832854676472d0     0.611714235215323d0
N1       0.354631699067223d0     0.942691444729532d0     0.654445186699383d0
N1       0.787258154999715d0     0.771682291496511d0     0.622910299394185d0
Mg1      0.579359962221448d0     0.233539276290797d0     0.667386836476681d0
Mg1      0.633742319582306d0     0.583495300776012d0     0.646952492853412d0
Mg1      0.074367790715724d0     0.278516595446031d0     0.715583289142448d0
Mg1      0.977694211089472d0     0.123782398624719d0     0.638976484565361d0
N1       0.824430177918636d0     0.894027450912964d0     0.641312246122899d0
N1       0.367409221582591d0     0.083237508240393d0     0.675975574568728d0
N1       0.188298507137042d0     0.532173945448899d0     0.728432419002889d0
N1       0.810041488252402d0     0.324993574623953d0     0.687996649675490d0
K_POINTS automatic
4 4 1 0 0 0
